COMM YAlO3
! Current global Chi2 (Bragg contrib.) =      10.46    
! Files => DAT-file: scale-fit-1.dat,  PCR-file: scale-fit-1
!Job Npr Nph Nba Nex Nsc Nor Dum Iwg Ilo Ias Res Ste Nre Cry Uni Cor Opt Aut
   1   5   2  25   2   0   0   0   0   0   0   0   0   0   0   0   0   1   1
!
!Ipr Ppl Ioc Mat Pcr Ls1 Ls2 Ls3 NLI Prf Ins Rpa Sym Hkl Fou Sho Ana
   0   2   1   1   2   0   4   0   0   2  10  -1   1   1   0   1   1
!
! Lambda1  Lambda2    Ratio    Bkpos    Wdt    Cthm     muR   AsyLim   Rpolarz  2nd-muR -> Patt# 1
 1.548160 1.548160  1.00000   10.000  20.000  0.0000  0.0221  160.00    0.0000  0.0000
!
!NCY  Eps  R_at  R_an  R_pr  R_gl     Thmin       Step       Thmax    PSD    Sent0
150  0.10  1.00  1.00  1.00  1.00      2.3000   0.050019   151.9500   0.000   0.000
!
!2Theta/TOF/E(Kev)   Background  for Pattern#  1
         4.0500      1320.7260          0.00
         4.7770      1824.8624          0.00
         6.7860      2430.7664          0.00
        13.2590      2109.5396          0.00
        18.1700      2027.1514          0.00
        23.7500      2073.3027          0.00
        32.0090      2105.2959          0.00
        36.4730      2159.1431          0.00
        47.1880      1992.4575          0.00
        52.0980      2014.7715          0.00
        59.0180      2054.0281          0.00
        69.9550      1987.9011          0.00
        80.0000      2154.4976          0.00
        90.4910      2163.2856          0.00
       101.2050      2156.4685          0.00
       106.3390      2072.2153          0.00
       108.7950      1958.4514          0.00
       112.5890      1996.4417          0.00
       119.2860      1983.7804          0.00
       128.2140      2478.9954          0.00
       133.1250      2323.0271          0.00
       140.9380      2669.7397          0.00
       145.6250      2584.4277          0.00
       148.0800      2788.7900          0.00
       151.9000      2793.5588          0.00
! 
! Excluded regions (LowT  HighT) for Pattern#  1
        0.00        4.00
      153.95      180.00
! 
!
       1    !Number of refined parameters
!
!  Zero    Code    SyCos    Code   SySin    Code  Lambda     Code MORE ->Patt# 1
  0.00146   0.00  0.00000   0.00  0.00000   0.00 0.000000    0.00   0
!-------------------------------------------------------------------------------
!  Data for PHASE number:   1  ==> Current R_Bragg for Pattern#  1:   0.0000
!-------------------------------------------------------------------------------
YAlO3
!
!Nat Dis Ang Pr1 Pr2 Pr3 Jbt Irf Isy Str Furth       ATZ    Nvk Npr More
   4   0   0 0.0 0.0 1.0   0   0   0   0   0        655.543   0   5   1
!
!Jvi Jdi Hel Sol Mom Ter  Brind   RMua    RMub    RMuc   Jtyp  Nsp_Ref Ph_Shift N_Domains
   0   3   0   0   0   0  1.0000  0.0000  0.0000  0.0000    1      0      0      0
!
! Max_dst(dist) (angles)  Bond-Valence Calc.
      3.0000      0.0000        BVS
!  N_cations   N_anions     Tolerance(%) / Name or cations/ and Anions
       2           1                0.00
Y+3  AL+3
O-2 
!
!
P b n m                  <--Space group symbol
!Atom   Typ       X        Y        Z     Biso       Occ     In Fin N_t Spc /Codes
Y      Y       0.01241  0.55406  0.25000  0.11810   0.50000   0   0   0    0  
                  0.00     0.00     0.00     0.00      0.00
Al     AL      0.00000  0.00000  0.00000  0.12582   0.50000   0   0   0    0  
                  0.00     0.00     0.00     0.00      0.00
O1     O      -0.08385 -0.02195  0.25000  0.05559   0.50000   0   0   0    0  
                  0.00     0.00     0.00     0.00      0.00
O2     O       0.20470  0.29483  0.04427  0.13975   1.00000   0   0   0    0  
                  0.00     0.00     0.00     0.00      0.00
!-------> Profile Parameters for Pattern #   1  ----> Phase #   1
!  Scale          Shape1      Bov      Str1      Str2      Str3   Strain-Model
  27.89617       0.12522   0.00000   0.00000   0.00000   0.00000       0
          0.00      0.00      0.00      0.00      0.00      0.00
!       U            V            W             X            Y         GauSiz      LorSiz    Size-Model
     0.038892    -0.046200     0.105860     0.000000     0.000000     0.000000     0.000000       0
         0.00         0.00         0.00         0.00         0.00         0.00         0.00
!     a          b         c        alpha      beta       gamma      # Cell Info
   5.172419   5.326590   7.360847  90.000000  90.000000  90.000000   
       0.00       0.00       0.00       0.00       0.00       0.00
!  Pref1    Pref2      Asy1     Asy2     Asy3     Asy4  
  0.00000  0.00000  0.21542  0.00305 -0.27811  0.05563
     0.00     0.00     0.00     0.00     0.00     0.00
!-------------------------------------------------------------------------------
!  Data for PHASE number:   2  ==> Current R_Bragg for Pattern#  1:   0.0000
!-------------------------------------------------------------------------------
Al2O3
!
!Nat Dis Ang Pr1 Pr2 Pr3 Jbt Irf Isy Str Furth       ATZ    Nvk Npr More
   2   0   0 0.0 0.0 1.0   0   0   0   0   0        611.758   0   5   0
!
!
R -3 c                   <--Space group symbol
!Atom   Typ       X        Y        Z     Biso       Occ     In Fin N_t Spc /Codes
Al1    Al      0.00000  0.00000  0.33349 -0.13591   0.33333   0   0   0    0  
                  0.00     0.00     0.00     0.00      0.00
O1     O       0.34993  0.00000  0.25000  1.24078   0.50000   0   0   0    0  
                  0.00     0.00     0.00     0.00      0.00
!-------> Profile Parameters for Pattern #   1  ----> Phase #   2
!  Scale          Shape1      Bov      Str1      Str2      Str3   Strain-Model
 0.1887676       0.12522   0.00000   0.00000   0.00000   0.00000       0
      11.00000      0.00      0.00      0.00      0.00      0.00
!       U            V            W             X            Y         GauSiz      LorSiz    Size-Model
     0.038892    -0.046200     0.105860     0.000000     0.000000     0.000000     0.000000       0
         0.00         0.00         0.00         0.00         0.00         0.00         0.00
!     a          b         c        alpha      beta       gamma      # Cell Info
   4.756614   4.756614  12.973037  90.000000  90.000000 120.000000   
       0.00       0.00       0.00       0.00       0.00       0.00
!  Pref1    Pref2      Asy1     Asy2     Asy3     Asy4  
  0.00000  0.00000  0.21542  0.00305 -0.27811  0.05563
     0.00     0.00     0.00     0.00     0.00     0.00
!  2Th1/TOF1    2Th2/TOF2  Pattern to plot
       4.000     151.950       1
