COMM CeCoAl3 RT #13744 ThCr2Si2 type  TSample:   300.00 K
! Current global Chi2 (Bragg contrib.) =      2.031    
! Files => DAT-file: cecoal.dat,  PCR-file: cecoal
!Job Npr Nph Nba Nex Nsc Nor Dum Iwg Ilo Ias Res Ste Nre Cry Uni Cor Opt Aut
  -1   9   1  -5   2   0   0   1   1   0   1   0   0   0   0   1   0   0   1
!
!Ipr Ppl Ioc Mat Pcr Ls1 Ls2 Ls3 NLI Prf Ins Rpa Sym Hkl Fou Sho Ana
   0   0   1   0   2   0   4   0   0  -3  10   1   1   0   0   0   0
!
!  Bkpos        Wdt    Iabscor for Pattern#  1
    7000.000    4.20     2
!NCY  Eps  R_at  R_an  R_pr  R_gl    TOF-min      <Step>       TOF-max 
 15  0.02  1.00  1.00  1.00  1.00    3001.5891      4.3357  19004.6582
!
! Excluded regions (LowT  HighT) for Pattern#  1
     2000.10     3000.00
    19000.00    20000.00
! 
!
      32    !Number of refined parameters
!
!    Zero       Code      Dtt1      Code       Dtt2     Code  Dtt_1overd    Code  2ThetaBank  -> Patt#  1
     3.93076   21.00  6176.03076    0.00    -1.92182  201.00     0.00000    0.00   145.000
!
!   Background coefficients/codes  for Pattern#  1  (Chebychev polynomials, up to 24 coefficients)
   26833.268    4390.595    2629.921    -513.844     284.766     163.453
       31.00       41.00       51.00      241.00      251.00      261.00
     240.860     -72.050      15.103     126.011     -12.868    -280.942
      271.00      281.00      291.00      301.00      311.00      321.00
       0.000       0.000       0.000       0.000       0.000       0.000
        0.00        0.00        0.00        0.00        0.00        0.00
       0.000       0.000       0.000       0.000       0.000       0.000
        0.00        0.00        0.00        0.00        0.00        0.00
!-------------------------------------------------------------------------------
!  Data for PHASE number:   1  ==> Current R_Bragg for Pattern#  1:   5.4621
!-------------------------------------------------------------------------------
CeCoAl3
!
!Nat Dis Ang Pr1 Pr2 Pr3 Jbt Irf Isy Str Furth       ATZ    Nvk Npr More
   5   0   0 0.0 0.0 1.0   0   0   0   0   0       9859.010   0   9   0
!
!
P m m a                  <--Space group symbol
!Atom   Typ       X        Y        Z     Biso       Occ     In Fin N_t Spc /Codes
Ce     CE      0.25000  0.00000  0.38279  0.50270   0.25000   0   0   0    0  #color green
                  0.00     0.00   161.00   211.00      0.00
Co     CO      0.25000  0.00000  0.81319  0.47597   0.25000   0   0   0    0  #color yellow
                  0.00     0.00   171.00   221.00      0.00
Al1    AL      0.00000  0.00000  0.00000  0.58480   0.25000   0   0   0    0  #conn Al Al 0.0 3.5
                  0.00     0.00     0.00   231.00      0.00
Al2    AL      0.25000  0.50000  0.04117  0.65837   0.25000   0   0   0    0  
                  0.00     0.00   181.00   111.00      0.00
Al3    AL      0.06930  0.50000  0.70070  0.53258   0.51033   0   0   0    0  
                191.00     0.00   151.00   101.00     91.00
!-------> Profile Parameters for Pattern #   1  ----> Phase #   1
!  Scale         Extinc      Bov     Str1     Str2     Str3    Strain-Model
  16658.99     0.001600   0.0000   0.0000   0.0000   0.0000       0
      11.00000     0.00     0.00     0.00     0.00     0.00
!      Sig-2       Sig-1       Sig-0       Sig-Q     G-Strain     G-Size        Z0  Size-Model
      0.0000     39.4625      0.0000      0.0000      0.0000      0.0000      0.0000   0
        0.00       71.00        0.00        0.00        0.00        0.00        0.00
!      Gam-2       Gam-1       Gam-0        LStr        LSiz
      0.0000      4.7780      0.0000      0.0000      0.0000
        0.00       81.00        0.00        0.00        0.00
!     a          b         c        alpha      beta       gamma      #Cell Info
   7.650379   4.051331   6.905360  90.000000  90.000000  90.000000   
  121.00000  131.00000  141.00000    0.00000    0.00000    0.00000
!      Pref1      Pref2        alph0       beta0       alph1       beta1      alphQ     betaQ
    0.000000    0.000000    0.000000    0.043085    0.297100    0.002867    0.000000    0.000000
        0.00        0.00        0.00        0.00        0.00        0.00        0.00        0.00
!Absorption correction parameters
   0.01561   61.00   0.00000    0.00            ABS: ABSCOR1  ABSCOR2
!  2Th1/TOF1    2Th2/TOF2  Pattern to plot
    3001.589   19000.000       1
