COMM YAlO3                                                                      
! Current global Chi2 (Bragg contrib.) =      10.67    
! Files => DAT-file: yap_3k,  PCR-file: yap_3k
!Job Npr Nph Nba Nex Nsc Nor Dum Iwg Ilo Ias Res Ste Nre Cry Uni Cor Opt Aut
   1   5   2  25   2   0   0   0   0   0   0   0   0   0   0   0   0   1   1
!
!Ipr Ppl Ioc Mat Pcr Ls1 Ls2 Ls3 NLI Prf Ins Rpa Sym Hkl Fou Sho Ana
   0   0   1   1   2   0   4   0   0  -3  10  -1   1   1   0   1   1
!
! lambda1 Lambda2    Ratio    Bkpos    Wdt    Cthm     muR   AsyLim   Rpolarz ->Patt# 1
 1.548160 1.548160  1.0000   10.000 20.0000  0.0000  0.0221  160.00    0.0000
!
!NCY  Eps  R_at  R_an  R_pr  R_gl     Thmin       Step       Thmax    PSD    Sent0
150  0.10  1.00  1.00  1.00  1.00      2.3000   0.050017   151.9500   0.000   0.000
!
!2Theta/TOF/E(Kev)   Background  for Pattern#  1
        4.050     1320.726      471.000
        4.777     1824.863      481.000
        6.786     2430.764      491.000
       13.259     2109.545      501.000
       18.170     2027.129      511.000
       23.750     2073.392      521.000
       32.009     2105.281      531.000
       36.473     2159.067      541.000
       47.188     1992.411      551.000
       52.098     2014.860      561.000
       59.018     2053.951      351.000
       69.955     1987.962      341.000
       80.000     2154.405      331.000
       90.491     2163.197      321.000
      101.205     2156.520      311.000
      106.339     2072.121      301.000
      108.795     1958.424      291.000
      112.589     1996.128      281.000
      119.286     1983.888      271.000
      128.214     2479.002      261.000
      133.125     2323.176      251.000
      140.938     2670.620      241.000
      145.625     2585.601      231.000
      148.080     2790.443      221.000
      151.900     2796.275      211.000
! 
! Excluded regions (LowT  HighT) for Pattern#  1
        0.00        4.00
      153.95      180.00
! 
!
      56    !Number of refined parameters
!
!  Zero    Code    SyCos    Code   SySin    Code  Lambda     Code MORE ->Patt# 1
  0.00147   21.0  0.00000    0.0  0.00000    0.0 0.000000    0.00   0
!-------------------------------------------------------------------------------
!  Data for PHASE number:   1  ==> Current R_Bragg for Pattern#  1:     0.00
!-------------------------------------------------------------------------------
YAlO3                                                                                                                                                               
!
!Nat Dis Ang Pr1 Pr2 Pr3 Jbt Irf Isy Str Furth       ATZ    Nvk Npr More
   4   0   0 0.0 0.0 1.0   0   0   0   0   0       1047.833   0   5   1
!
!Jvi Jdi Hel Sol Mom Ter  Brind   RMua    RMub    RMuc   Jtyp  Nsp_Ref Ph_Shift N_Domains
   0   3   0   0   0   0  1.0000  0.0000  0.0000  0.0000    1      0      0      0
!
! Max_dst(dist) (angles)  Bond-Valence Calc.
      3.0000      0.0000        BVS
!  N_cations   N_anions     Tolerance(%) / Name or cations/ and Anions
       2           1                0.00
Y+3  AL+3
O-2 
!
P b n m                  <--Space group symbol
!Atom Typ       X        Y        Z     Biso       Occ     In Fin N_t Spc /Codes
Y    Y       0.01241  0.55406  0.25000  0.11812   0.50000   0   0   0    0                                                                                  
               61.00    71.00     0.00   161.00      0.00
Al   AL      0.00000  0.00000  0.00000  0.12590   0.50000   0   0   0    0                                                                                  
                0.00     0.00     0.00   171.00      0.00
O1   O      -0.08385 -0.02195  0.25000  0.05560   0.50000   0   0   0    0                                                                                  
               81.00    91.00     0.00   181.00      0.00
O2   O       0.20470  0.29483  0.04427  0.13977   1.00000   0   0   0    0                                                                                  
              101.00   111.00   121.00   191.00      0.00
!-------> Profile Parameters for Pattern #  1
!  Scale        Shape1      Bov      Str1      Str2      Str3   Strain-Model
  27.897       0.12522   0.00000   0.00000   0.00000   0.00000       0
    11.00000   381.000     0.000     0.000     0.000     0.000
!       U         V          W           X          Y        GauSiz   LorSiz Size-Model
   0.038898  -0.046205   0.105864   0.000000   0.000000   0.000000   0.000000    0
    131.000    141.000    151.000      0.000      0.000      0.000      0.000
!     a          b         c        alpha      beta       gamma      #Cell Info
   5.172419   5.326590   7.360847  90.000000  90.000000  90.000000                                                                                   
   31.00000   41.00000   51.00000    0.00000    0.00000    0.00000
!  Pref1    Pref2      Asy1     Asy2     Asy3     Asy4  
  0.00000  0.00000  0.21545  0.00305 -0.27813  0.05563
     0.00     0.00   361.00   371.00   391.00   401.00
!-------------------------------------------------------------------------------
!  Data for PHASE number:   2  ==> Current R_Bragg for Pattern#  1:     0.00
!-------------------------------------------------------------------------------
Al2O3                                                                                                                                                               
!
!Nat Dis Ang Pr1 Pr2 Pr3 Jbt Irf Isy Str Furth       ATZ    Nvk Npr More
   2   0   0 0.0 0.0 1.0   0   0   0   0   0       3612.974   0   5   0
!
R -3 c                   <--Space group symbol
!Atom Typ       X        Y        Z     Biso       Occ     In Fin N_t Spc /Codes
Al1  Al      0.00000  0.00000  0.33351 -0.12809   0.33333   0   0   0    0                                                                                  
                0.00     0.00   201.00   451.00      0.00
O1   O       0.35030  0.00000  0.25000  1.22884   0.50000   0   0   0    0                                                                                  
              441.00     0.00     0.00   461.00      0.00
!-------> Profile Parameters for Pattern #  1
!  Scale        Shape1      Bov      Str1      Str2      Str3   Strain-Model
   0.1886828   0.12522   0.00000   0.00000   0.00000   0.00000       0
   411.00000   381.000     0.000     0.000     0.000     0.000
!       U         V          W           X          Y        GauSiz   LorSiz Size-Model
   0.038898  -0.046205   0.105864   0.000000   0.000000   0.000000   0.000000    0
    131.000    141.000    151.000      0.000      0.000      0.000      0.000
!     a          b         c        alpha      beta       gamma      #Cell Info
   4.756605   4.756605  12.973073  90.000000  90.000000 120.000000                                                                                   
  421.00000  421.00000  431.00000    0.00000    0.00000  421.00000
!  Pref1    Pref2      Asy1     Asy2     Asy3     Asy4  
  0.00000  0.00000  0.21545  0.00305 -0.27813  0.05563
     0.00     0.00   361.00   371.00   391.00   401.00
!  2Th1/TOF1    2Th2/TOF2  Pattern # 1
      10.300     147.000
