COMM PbSO4 D1A(ILL),Rietveld Round Robin, R.J. Hill,JApC 25,589(1992)
! Current global Chi2 (Bragg contrib.) =      3.535    
! Files => DAT-file: pbso4.dat,  PCR-file: pbso4
!Job Npr Nph Nba Nex Nsc Nor Dum Iwg Ilo Ias Res Ste Nre Cry Uni Cor Opt Aut
   1   7   1   8   2   0   0   0   0   0   0   0   0   0   0   0   0   1   1
!
!Ipr Ppl Ioc Mat Pcr Ls1 Ls2 Ls3 NLI Prf Ins Rpa Sym Hkl Fou Sho Ana
   2   2   1   0   1   0   4   0   0   2   6   1   1   0   0   1   1
!
! Lambda1  Lambda2    Ratio    Bkpos    Wdt    Cthm     muR   AsyLim   Rpolarz  2nd-muR -> Patt# 1
 1.912000 1.912000  1.00000   70.000  30.000  0.0000  0.0000  180.00    0.0000  0.0000
!
!NCY  Eps  R_at  R_an  R_pr  R_gl     Thmin       Step       Thmax    PSD    Sent0
100  0.05  1.00  1.00  1.00  1.00    10.0000   0.050000   155.4500   0.000   0.000
!
!2Theta/TOF/E(Kev)   Background  for Pattern#  1
        11.0000       209.9910          0.00
        15.0000       196.7578          0.00
        20.0000       195.7190          0.00
        30.0000       190.7474          0.00
        50.0000       208.2487          0.00
        70.0000       202.0775          0.00
       120.0000       245.4391          0.00
       153.0000       224.8356          0.00
! 
! Excluded regions (LowT  HighT) for Pattern#  1
        0.00       10.00
      155.45      180.00
! 
!
       1    !Number of refined parameters
!
!  Zero    Code    SyCos    Code   SySin    Code  Lambda     Code MORE ->Patt# 1
 -0.08424    0.0  0.00000    0.0  0.00000    0.0 0.000000    0.00   0
!-------------------------------------------------------------------------------
!  Data for PHASE number:   1  ==> Current R_Bragg for Pattern#  1:   0.0000
!-------------------------------------------------------------------------------
PbSO4
!
!Nat Dis Ang Pr1 Pr2 Pr3 Jbt Irf Isy Str Furth       ATZ    Nvk Npr More
   5   0   0 0.0 0.0 1.0   0   0   0   0   0       1213.030   0   7   1
!
!Jvi Jdi Hel Sol Mom Ter  Brind   RMua    RMub    RMuc   Jtyp  Nsp_Ref Ph_Shift N_Domains
   0   3   0   0   0   0  1.0000  0.0000  0.0000  0.0000    1      0      0      0
!
! Max_dst(dist) (angles)  Bond-Valence Calc.
      3.5000      0.0000        BVS
!  N_cations   N_anions     Tolerance(%) / Name or cations/ and Anions
       2           1               20.00
PB+2 S+6 
O-2 
!
!
P n m a                  <--Space group symbol
!Atom   Typ       X        Y        Z     Biso       Occ     In Fin N_t Spc /Codes
Pb     PB      0.18752  0.25000  0.16705  1.39017   0.50000   0   0   0    1  #color cyan
                  0.00     0.00     0.00     0.00      0.00
S      S       0.06549  0.25000  0.68373  0.39270   0.50000   0   0   0    2  #radius 0.5  color green
                  0.00     0.00     0.00     0.00      0.00
O1     O       0.90816  0.25000  0.59544  1.99307   0.50000   0   0   0    3  #conn S O 0 2.2
                  0.00     0.00     0.00     0.00      0.00
O2     O       0.19355  0.25000  0.54331  1.47771   0.50000   0   0   0    3  
                  0.00     0.00     0.00     0.00      0.00
O3     O       0.08109  0.02727  0.80869  1.30007   1.00000   0   0   0    3  
                  0.00     0.00     0.00     0.00      0.00
!-------> Profile Parameters for Pattern #   1  ----> Phase #   1
!  Scale          Shape1      Bov      Str1      Str2      Str3   Strain-Model
  1.463815       0.00000   0.00000   0.00000   0.00000   0.00000       0
      11.00000     0.000     0.000     0.000     0.000     0.000
!       U            V            W             X            Y         GauSiz      LorSiz    Size-Model
     0.153402    -0.453103     0.419409     0.000000     0.086818     0.000000     0.000000       0
         0.00         0.00         0.00         0.00         0.00         0.00         0.00
!     a          b         c        alpha      beta       gamma      # Cell Info
   8.479506   5.397256   6.958973  90.000000  90.000000  90.000000   #box -0.25 1.25 -0.15 1.15 -0.15 1.15
    0.00000    0.00000    0.00000    0.00000    0.00000    0.00000
!  Pref1    Pref2      Asy1     Asy2     Asy3     Asy4      S_L      D_L
  0.00000  0.00000  0.29465  0.02261 -0.10961  0.04941  0.00000  0.00000
     0.00     0.00     0.00     0.00     0.00     0.00     0.00     0.00
!  2Th1/TOF1    2Th2/TOF2  Pattern to plot
      10.000     155.450       1
