COMM CoSiO D20 01_001 497.379 K, Biso(Co1) and Biso(Co2) tied: codeword 181
!Job Npr Nph Nba Nex Nsc Nor Dum Iwg Ilo Ias Res Ste Nre Cry Uni Cor Opt Aut
   1   7   1   14   2   0   0   0   0   0   0   0   0   0   0   0   0   0   0
!Ipr Ppl Ioc Mat Pcr Ls1 Ls2 Ls3 NLI Prf Ins Rpa Sym Hkl Fou Sho Ana
   0   0   1   0   2   0   4   0   0   2  10   0   0   0   0   0   0
! Lambda1  Lambda2    Ratio    Bkpos    Wdt    Cthm     muR   AsyLim   Rpolarz  2nd-muR
 1.870000 1.870000  0.00000   70.000   8.000  0.0000  0.0000  160.00    0.0000  0.0000
!NCY  Eps  R_at  R_an  R_pr  R_gl     Thmin       Step       Thmax    PSD    Sent0
100  0.01  1.00  1.00  1.00  1.00      0.0953     0.1000   150.8953   0.000   0.000
!2Theta/TOF/E(Kev)   Background  for Pattern#  1
      8.5000      631.521870   11.00
      9.0000      589.406220   21.00
     10.0000      581.828799   31.00
     11.0000      561.848518   41.00
     12.0000      539.588392   51.00
     15.0000      510.502712   61.00
     25.0000      472.669168   71.00
     30.0000      461.908577   81.00
     50.0000      473.213452   91.00
     70.0000      459.250060   101.00
     90.0000      448.655426   111.00
    110.0000      393.452793   121.00
    130.0000      317.994767   131.00
    149.0000      260.916498   141.00
! Excluded regions (LowT  HighT)
        0.00        8.00
      150.00      180.00
!
      39    !Number of refined parameters
!  Zero    Code    SyCos    Code   SySin    Code  Lambda     Code MORE
  0.290079  151.00  0.00000  0.0  0.00000  0.0  0.000000  0.00  0
!-------------------------------------------------------------------------------
CoSiO
!Nat Dis Ang Pr1 Pr2 Pr3 Jbt Irf Isy Str Furth       ATZ    Nvk Npr More
   6   0   0 0.0 0.0 1.0   0   0   0   0   0          0.000   0   7   0
P n m a                  <--Space group symbol
!Atom   Typ       X        Y        Z     Biso       Occ     In Fin N_t Spc /Codes
Co1    Co      0.000000   0.000000   0.000000   0.98759   0.50000   0   0   0    0
                  0.00     0.00     0.00   181.00     0.00
Co2    Co      0.281984   0.250000   0.981765   0.98759   0.50000   0   0   0    0
                  161.00     0.00     171.00     181.00     0.00
Si     Si      0.094155   0.250000   0.429738   0.67424   0.50000   0   0   0    0
                  191.00     0.00     201.00     211.00     0.00
O1     O       0.090899   0.250000   0.769413   1.04155   0.50000   0   0   0    0
                  221.00     0.00     231.00     241.00     0.00
O2     O       0.448610   0.250000   0.215465   1.03151   0.50000   0   0   0    0
                  251.00     0.00     261.00     271.00     0.00
O3     O       0.164063   0.032361   0.280122   1.29339   1.00000   0   0   0    0
                  281.00     291.00     301.00     311.00     0.00
!  Scale          Shape1      Bov      Str1      Str2      Str3   Strain-Model
  1.230743  0.00000  0.00000  0.00000  0.00000  0.00000  0
       321.00     0.000     0.000     0.000     0.000     0.000
!       U            V            W             X            Y         GauSiz      LorSiz    Size-Model
  0.230911  -0.514025  0.372616   0.000000  0.012942   0.000000   0.000000       0
         331.00         341.00         351.00         0.00         361.00         0.00         0.00
!     a          b         c        alpha      beta       gamma
  10.335842  6.029695  4.797570  90.000000  90.000000  90.000000
    371.00    381.00    391.00    0.00000    0.00000    0.00000
!  Pref1    Pref2      Asy1     Asy2     Asy3     Asy4      S_L      D_L
  0.00000  0.00000  0.00000  0.00000  0.00000  0.00000  0.00000  0.00000
     0.00     0.00     0.00     0.00     0.00     0.00     0.00     0.00
