COMM  Backscattering Bank (2theta= 144.845)  Si- Argonne
! Current global Chi2 (Bragg contrib.) =      6.789    
! Files => DAT-file: arg_si.dat,  PCR-file: arg_si
!Job Npr Nph Nba Nex Nsc Nor Dum Iwg Ilo Ias Res Ste Nre Cry Uni Cor Opt Aut
  -1  13   1  -4   2   0   0   0   0   0   0   0   0   0   0   1   0   0   1
!
!Ipr Ppl Ioc Mat Pcr Ls1 Ls2 Ls3 NLI Prf Ins Rpa Sym Hkl Fou Sho Ana
   0   0   1   0   2   0   4   0   0  -3  12   1   1   1   2   0   0
!
!  Bkpos        Wdt    Iabscor for Pattern#  1
    7000.000    8.20     2
!NCY  Eps  R_at  R_an  R_pr  R_gl    TOF-min      <Step>       TOF-max 
 10  0.05  1.00  1.00  1.00  1.00    2000.0000      5.0000  29995.0000
!
! Excluded regions (LowT  HighT) for Pattern#  1
     1000.10     2000.00
    29999.00    40000.00
! 
!
      16    !Number of refined parameters
!
!    Zero       Code      Dtt1      Code       Dtt2     Code  Dtt_1overd    Code  2ThetaBank  -> Patt#  1
    -5.18027   11.00  7476.91016    0.00    -1.54000    0.00     0.00000    0.00   144.845
!
!   Background coefficients/codes  for Pattern#  1  (Fourier cosine series, up to 18 coefficients)
     151.666      -1.076      35.884      11.070      19.836       3.152
       41.00       51.00       61.00       71.00       81.00       91.00
      10.399       0.000       0.000       0.000       0.000       0.000
      101.00        0.00        0.00        0.00        0.00        0.00
       0.000       0.000       0.000       0.000       0.000       0.000
        0.00        0.00        0.00        0.00        0.00        0.00
!-------------------------------------------------------------------------------
!  Data for PHASE number:   1  ==> Current R_Bragg for Pattern#  1:   3.5144
!-------------------------------------------------------------------------------
Standard-Si
!
!Nat Dis Ang Pr1 Pr2 Pr3 Jbt Irf Isy Str Furth       ATZ    Nvk Npr More
   1   0   0 0.0 0.0 1.0   0   0   0   0   0     129420.289   0  13   0
!
!
F d 3 m                  <--Space group symbol
!Atom   Typ       X        Y        Z     Biso       Occ     In Fin N_t Spc /Codes
Si     SI      0.12500  0.12500  0.12500  0.45207   0.04167   0   0   0    0  # color green conn Si Si 0 2.5
                  0.00     0.00     0.00   111.00      0.00
!-------> Profile Parameters for Pattern #   1  ----> Phase #   1
!  Scale          Extinc       Bov      Str1      Str2      Str3    Strain-Mode
  392.0369      4.031355    0.0000    0.0000    0.0000    0.0000         0
      21.00000    121.00      0.00      0.00      0.00      0.00
!      Sigma-2       Sigma-1       Sigma-0       Sigma-Q   Iso-GStrain     Iso-GSize     Ani-LSize   Size-Model
        0.0000       33.0422        8.4059        0.0000        0.0000        0.0000        0.0000       0
          0.00        161.00        131.00          0.00          0.00          0.00          0.00
!      Gamma-2       Gamma-1       Gamma-0   Iso-LorStrain   Iso-LorSize
        0.0000        2.6045        0.0000        0.0000        0.0000
          0.00         31.00          0.00          0.00          0.00
!     a          b         c        alpha      beta       gamma      # Cell Info
   5.426328   5.426328   5.426328  90.000000  90.000000  90.000000   # multiple box -1.15 1.15 -1.15 1.15 -0.15 1.15
  141.00000  141.00000  141.00000    0.00000    0.00000    0.00000
!      Pref1      Pref2        alph0       beta0       alph1       Kappa
    0.000000    0.000000    0.000000   21.668488    0.879000   75.321373    0.000000    0.000000
        0.00        0.00        0.00        0.00        0.00        0.00        0.00        0.00
!Absorption correction parameters
   0.00336  151.00   0.00000    0.00            ABS: ABSCOR1  ABSCOR2
!  2Th1/TOF1    2Th2/TOF2  Pattern to plot
    2000.000   29995.000       1
